g3 1 1 0	# problem unknown
 2 0 14 0 0 	# vars, constraints, objectives, ranges, eqns
 0 13 0 0 0 0	# nonlinear constrs, objs; ccons: lin, nonlin, nd, nzlb
 0 0	# network constraints: nonlinear, linear
 0 2 0 	# nonlinear vars in constraints, objectives, both
 0 0 0 1	# linear network variables; functions; arith, flags
 0 0 0 0 0 	# discrete variables: binary, integer, nonlinear (b,c,o)
 0 20 	# nonzeros in Jacobian, obj. gradient
 0 0	# max name lengths: constraints, variables
 0 0 0 0 0	# common exprs: b,c,o,c1,o1
O0 0
o0
o54
4
o43
v0
o2
n3
o43
v1
o2
n11.43
o43
o0
o16
o44
o2
n-1.07495332088557
v1
n1
o2
n12.83
o43
o0
o16
o44
o2
n-3.809015737530008
v1
n1
n-15.8291124137
O1 0
o5
v0
n-1.0
O2 0
o16
o5
v0
n-2.0
O3 0
o0
o54
3
o2
n3.0
o5
v1
n-1.0
o2
o2
n12.286716457722065
o5
o0
o16
o44
o2
n-1.07495332088557
v1
n1.0
n-1.0
o44
o2
n-1.07495332088557
v1
o2
o2
n48.86967191251001
o5
o0
o16
o44
o2
n-3.809015737530008
v1
n1.0
n-1.0
o44
o2
n-3.809015737530008
v1
n11.0879509962
O4 0
o54
5
o2
n-3.0
o5
v1
n-2.0
o2
o2
n-186.14534940267885
o5
o0
o16
o44
o2
n-3.809015737530008
v1
n1.0
n-1.0
o44
o2
n-3.809015737530008
v1
o2
o2
n-186.14534940267885
o5
o0
o16
o44
o2
n-3.809015737530008
v1
n1.0
n-2.0
o44
o2
n-7.618031475060016
v1
o2
o2
n-13.20764665900772
o5
o0
o16
o44
o2
n-1.07495332088557
v1
n1.0
n-1.0
o44
o2
n-1.07495332088557
v1
o2
o2
n-13.20764665900772
o5
o0
o16
o44
o2
n-1.07495332088557
v1
n1.0
n-2.0
o44
o2
n-2.14990664177114
v1
O5 0
o54
18
o2
o2
n2.024341
v0
o5
v1
n0.34
o2
o2
n-2.60593
v0
o5
v1
n0.77
o2
o2
n0.4957216
o5
v0
n2
o5
v1
n0.36
o2
o2
n-0.824082
o5
v0
n2
o5
v1
n0.9
o2
o2
n0.06543703
o5
v0
n4
v1
o2
o2
o2
n-1.02461
v0
o5
v1
n2.82
o44
o2
n-1
v0
o2
o2
o2
n0.6247065
o5
v0
n3
o5
v1
n2.1
o44
o2
n-1
v0
o2
o2
o2
n0.2997521
o5
v0
n6
o5
v1
n0.9
o44
o2
n-1
v0
o2
o2
o2
n-0.353917
o5
v0
n6
o5
v1
n1.13
o44
o2
n-1
v0
o2
o2
o2
n-1.232043
o5
v0
n2
o5
v1
n3.8
o44
o16
o5
v0
n2
o2
o2
o2
n-0.8824483
o5
v0
n3
o5
v1
n2.75
o44
o16
o5
v0
n2
o2
o2
o2
n0.1349661
v0
o5
v1
n1.5
o44
o0
o2
n-0.83
o5
o0
v0
n-1.13
n2
o2
n-1.72
o5
o0
v1
n-0.414
n2
o2
o2
o2
n-0.2662928
o5
v0
n2
o5
v1
n2.5
o44
o0
o2
n-2.19
o5
o0
v0
n-0.71
n2
o2
n-5.2
o5
o0
v1
n-1.051
n2
o2
o2
o2
n0.1764733
v0
o5
v1
n2.5
o44
o0
o2
n-2.44
o5
o0
v0
n-1.2
n2
o2
n-2.31
o5
o0
v1
n-1.226
n2
o2
o2
o2
n0.01536163
v0
o5
v1
n5.4
o44
o0
o2
n-3.65
o5
o0
v0
n-1.7
n2
o2
n-1.02
o5
o0
v1
n-1.7
n2
o2
o2
o2
n-0.004667185
o5
v0
n4
o5
v1
n4
o44
o0
o2
n-8.88
o5
o0
v0
n-0.546
n2
o2
n-5.63
o5
o0
v1
n-0.904
n2
o2
o2
o2
n-11.70854
o5
v0
n2
v1
o44
o0
o2
n-8.23
o5
o0
v0
n-0.896
n2
o2
n-50.9
o5
o0
v1
n-1.42
n2
o2
o2
o2
n0.9114512
v0
o5
v1
n3.5
o44
o0
o2
n-2.01
o5
o0
v0
n-0.747
n2
o2
n-1.56
o5
o0
v1
n-0.926
n2
O6 0
o54
31
o2
n2.024341
o5
v1
n0.34
o2
n-2.60593
o5
v1
n0.77
o2
o2
n0.9914432
v0
o5
v1
n0.36
o2
o2
n0.1764733
o5
v1
n2.5
o44
o0
o2
n-2.31
o5
o0
v1
n-1.226
n2.0
o2
n-2.44
o5
o0
v0
n-1.2
n2.0
o2
o2
n0.26174812
v1
o5
v0
n3.0
o2
o2
n0.1349661
o5
v1
n1.5
o44
o0
o2
n-0.83
o5
o0
v0
n-1.13
n2.0
o2
n-1.72
o5
o0
v1
n-0.414
n2.0
o2
o2
n0.9114512
o5
v1
n3.5
o44
o0
o2
n-2.01
o5
o0
v0
n-0.747
n2.0
o2
n-1.56
o5
o0
v1
n-0.926
n2.0
o2
o2
n0.01536163
o5
v1
n5.4
o44
o0
o2
n-1.02
o5
o0
v1
n-1.7
n2.0
o2
n-3.65
o5
o0
v0
n-1.7
n2.0
o2
o2
n-1.02461
o5
v1
n2.82
o44
o2
n-1.0
v0
o2
o2
n-1.648164
v0
o5
v1
n0.9
o2
o2
o2
n1.02461
v0
o5
v1
n2.82
o44
o2
n-1.0
v0
o2
o2
o2
n2.464086
o5
v0
n3.0
o5
v1
n3.8
o44
o16
o5
v0
n2.0
o2
o2
o2
n1.7985126
o5
v0
n5.0
o5
v1
n0.9
o44
o2
n-1.0
v0
o2
o2
o2
n0.353917
o5
v0
n6.0
o5
v1
n1.13
o44
o2
n-1.0
v0
o2
o2
o2
n1.7648966
o5
v0
n4.0
o5
v1
n2.75
o44
o16
o5
v0
n2.0
o2
o2
o2
n1.8741195000000002
o5
v0
n2.0
o5
v1
n2.1
o44
o2
n-1.0
v0
o2
o2
o2
n-23.41708
v0
v1
o44
o0
o2
n-8.23
o5
o0
v0
n-0.896
n2.0
o2
n-50.9
o5
o0
v1
n-1.42
n2.0
o2
o2
o2
n-0.5325856
v0
o5
v1
n2.5
o44
o0
o2
n-2.19
o5
o0
v0
n-0.71
n2.0
o2
n-5.2
o5
o0
v1
n-1.051
n2.0
o2
o2
o2
n-2.464086
v0
o5
v1
n3.8
o44
o16
o5
v0
n2.0
o2
o2
o2
n-0.6247065
o5
v0
n3.0
o5
v1
n2.1
o44
o2
n-1.0
v0
o2
o2
o2
n-2.123502
o5
v0
n5.0
o5
v1
n1.13
o44
o2
n-1.0
v0
o2
o2
o2
n-0.01866874
o5
v0
n3.0
o5
v1
n4.0
o44
o0
o2
n-8.88
o5
o0
v0
n-0.546
n2.0
o2
n-5.63
o5
o0
v1
n-0.904
n2.0
o2
o2
o2
n-0.2997521
o5
v0
n6.0
o5
v1
n0.9
o44
o2
n-1.0
v0
o2
o2
o2
n-2.6473449
o5
v0
n2.0
o5
v1
n2.75
o44
o16
o5
v0
n2.0
o2
o2
o2
o2
n0.1764733
v0
o5
v1
n2.5
o0
o2
n-4.88
v0
n5.856
o44
o0
o2
n-2.31
o5
o0
v1
n-1.226
n2.0
o2
n-2.44
o5
o0
v0
n-1.2
n2.0
o2
o2
o2
o2
n0.1349661
v0
o5
v1
n1.5
o0
o2
n-1.66
v0
n1.8757999999999997
o44
o0
o2
n-0.83
o5
o0
v0
n-1.13
n2.0
o2
n-1.72
o5
o0
v1
n-0.414
n2.0
o2
o2
o2
o2
n0.9114512
v0
o5
v1
n3.5
o0
o2
n-4.02
v0
n3.0029399999999997
o44
o0
o2
n-2.01
o5
o0
v0
n-0.747
n2.0
o2
n-1.56
o5
o0
v1
n-0.926
n2.0
o2
o2
o2
o2
n0.01536163
v0
o5
v1
n5.4
o0
o2
n-7.3
v0
n12.41
o44
o0
o2
n-1.02
o5
o0
v1
n-1.7
n2.0
o2
n-3.65
o5
o0
v0
n-1.7
n2.0
o2
o2
o2
o2
n-11.70854
v1
o5
v0
n2.0
o0
o2
n-16.46
v0
n14.74816
o44
o0
o2
n-8.23
o5
o0
v0
n-0.896
n2.0
o2
n-50.9
o5
o0
v1
n-1.42
n2.0
o2
o2
o2
o2
n-0.2662928
o5
v0
n2.0
o5
v1
n2.5
o0
o2
n-4.38
v0
n3.1098
o44
o0
o2
n-2.19
o5
o0
v0
n-0.71
n2.0
o2
n-5.2
o5
o0
v1
n-1.051
n2.0
o2
o2
o2
o2
n-0.004667185
o5
v0
n4.0
o5
v1
n4.0
o0
o2
n-17.76
v0
n9.696960000000002
o44
o0
o2
n-8.88
o5
o0
v0
n-0.546
n2.0
o2
n-5.63
o5
o0
v1
n-0.904
n2.0
O7 0
o54
51
o2
n0.9914432
o5
v1
n0.36
o2
n-1.648164
o5
v1
n0.9
o2
o2
n2.04922
o5
v1
n2.82
o44
o2
n-1.0
v0
o2
o2
n0.7852443599999999
v1
o5
v0
n2.0
o2
o2
n-23.41708
v1
o44
o0
o2
n-8.23
o5
o0
v0
n-0.896
n2.0
o2
n-50.9
o5
o0
v1
n-1.42
n2.0
o2
o2
n-0.5325856
o5
v1
n2.5
o44
o0
o2
n-2.19
o5
o0
v0
n-0.71
n2.0
o2
n-5.2
o5
o0
v1
n-1.051
n2.0
o2
o2
n-2.464086
o5
v1
n3.8
o44
o16
o5
v0
n2.0
o2
o2
o2
n192.7225684
v1
o5
v0
n2.0
o44
o0
o2
n-8.23
o5
o0
v0
n-0.896
n2.0
o2
n-50.9
o5
o0
v1
n-1.42
n2.0
o2
o2
o2
n8.992563
o5
v1
n0.9
o5
v0
n4.0
o44
o2
n-1.0
v0
o2
o2
o2
n0.6247065
o5
v1
n2.1
o5
v0
n3.0
o44
o2
n-1.0
v0
o2
o2
o2
n0.1764733
o5
v1
n2.5
o0
o2
n-4.88
v0
n5.856
o44
o0
o2
n-2.31
o5
o0
v1
n-1.226
n2.0
o2
n-2.44
o5
o0
v0
n-1.2
n2.0
o2
o2
o2
n4.247004
o5
v1
n1.13
o5
v0
n5.0
o44
o2
n-1.0
v0
o2
o2
o2
n0.1349661
o5
v1
n1.5
o0
o2
n-1.66
v0
n1.8757999999999997
o44
o0
o2
n-0.83
o5
o0
v0
n-1.13
n2.0
o2
n-1.72
o5
o0
v1
n-0.414
n2.0
o2
o2
o2
n1.1663624639999999
o5
v1
n2.5
o5
v0
n2.0
o44
o0
o2
n-2.19
o5
o0
v0
n-0.71
n2.0
o2
n-5.2
o5
o0
v1
n-1.051
n2.0
o2
o2
o2
n0.2997521
o5
v1
n0.9
o5
v0
n6.0
o44
o2
n-1.0
v0
o2
o2
o2
n0.0828892056
o5
v1
n4.0
o5
v0
n4.0
o44
o0
o2
n-8.88
o5
o0
v0
n-0.546
n2.0
o2
n-5.63
o5
o0
v1
n-0.904
n2.0
o2
o2
o2
n12.32043
o5
v1
n3.8
o5
v0
n2.0
o44
o16
o5
v0
n2.0
o2
o2
o2
n12.3542762
o5
v1
n2.75
o5
v0
n3.0
o44
o16
o5
v0
n2.0
o2
o2
o2
n0.9114512
o5
v1
n3.5
o0
o2
n-4.02
v0
n3.0029399999999997
o44
o0
o2
n-2.01
o5
o0
v0
n-0.747
n2.0
o2
n-1.56
o5
o0
v1
n-0.926
n2.0
o2
o2
o2
n3.7482390000000003
o5
v1
n2.1
v0
o44
o2
n-1.0
v0
o2
o2
o2
n0.01536163
o5
v1
n5.4
o0
o2
n-7.3
v0
n12.41
o44
o0
o2
n-1.02
o5
o0
v1
n-1.7
n2.0
o2
n-3.65
o5
o0
v0
n-1.7
n2.0
o2
o2
o2
n-0.056006219999999995
o5
v1
n4.0
o5
v0
n2.0
o44
o0
o2
n-8.88
o5
o0
v0
n-0.546
n2.0
o2
n-5.63
o5
o0
v1
n-0.904
n2.0
o2
o2
o2
n-0.11213989899999999
v0
o5
v1
n5.4
o44
o0
o2
n-1.02
o5
o0
v1
n-1.7
n2.0
o2
n-3.65
o5
o0
v0
n-1.7
n2.0
o2
o2
o2
n-0.11213989899999999
o5
v1
n5.4
o0
v0
n-1.7
o44
o0
o2
n-1.02
o5
o0
v1
n-1.7
n2.0
o2
n-3.65
o5
o0
v0
n-1.7
n2.0
o2
o2
o2
n-1.02461
v0
o5
v1
n2.82
o44
o2
n-1.0
v0
o2
o2
o2
n-4.928172
o5
v1
n3.8
o5
v0
n4.0
o44
o16
o5
v0
n2.0
o2
o2
o2
n-0.224043726
v0
o5
v1
n1.5
o44
o0
o2
n-0.83
o5
o0
v0
n-1.13
n2.0
o2
n-1.72
o5
o0
v1
n-0.414
n2.0
o2
o2
o2
n-0.224043726
o5
v1
n1.5
o0
v0
n-1.13
o44
o0
o2
n-0.83
o5
o0
v0
n-1.13
n2.0
o2
n-1.72
o5
o0
v1
n-0.414
n2.0
o2
o2
o2
n-10.61751
o5
v1
n1.13
o5
v0
n4.0
o44
o2
n-1.0
v0
o2
o2
o2
n-3.5970252
o5
v1
n0.9
o5
v0
n5.0
o44
o2
n-1.0
v0
o2
o2
o2
n-3.6640338239999997
v0
o5
v1
n3.5
o44
o0
o2
n-2.01
o5
o0
v0
n-0.747
n2.0
o2
n-1.56
o5
o0
v1
n-0.926
n2.0
o2
o2
o2
n-3.6640338239999997
o5
v1
n3.5
o0
v0
n-0.747
o44
o0
o2
n-2.01
o5
o0
v0
n-0.747
n2.0
o2
n-1.56
o5
o0
v1
n-0.926
n2.0
o2
o2
o2
n-5.2946898
o5
v1
n2.75
v0
o44
o16
o5
v0
n2.0
o2
o2
o2
n-0.353917
o5
v1
n1.13
o5
v0
n6.0
o44
o2
n-1.0
v0
o2
o2
o2
n-0.861189704
v0
o5
v1
n2.5
o44
o0
o2
n-2.31
o5
o0
v1
n-1.226
n2.0
o2
n-2.44
o5
o0
v0
n-1.2
n2.0
o2
o2
o2
n-0.861189704
o5
v1
n2.5
o0
v0
n-1.2
o44
o0
o2
n-2.31
o5
o0
v1
n-1.226
n2.0
o2
n-2.44
o5
o0
v0
n-1.2
n2.0
o2
o2
o2
n-3.5297932
o5
v1
n2.75
o5
v0
n5.0
o44
o16
o5
v0
n2.0
o2
o2
o2
n-3.7482390000000003
o5
v1
n2.1
o5
v0
n2.0
o44
o2
n-1.0
v0
o2
o2
o2
o2
n385.4451368
v1
v0
o0
v0
n-0.896
o44
o0
o2
n-8.23
o5
o0
v0
n-0.896
n2.0
o2
n-50.9
o5
o0
v1
n-1.42
n2.0
o2
o2
o2
o2
n2.3327249279999998
v0
o5
v1
n2.5
o0
v0
n-0.71
o44
o0
o2
n-2.19
o5
o0
v0
n-0.71
n2.0
o2
n-5.2
o5
o0
v1
n-1.051
n2.0
o2
o2
o2
o2
n0.3315568224
o5
v1
n4.0
o5
v0
n3.0
o0
v0
n-0.546
o44
o0
o2
n-8.88
o5
o0
v0
n-0.546
n2.0
o2
n-5.63
o5
o0
v1
n-0.904
n2.0
o2
o2
o2
o2
n-23.41708
v1
v0
o0
o2
n-16.46
v0
n14.74816
o44
o0
o2
n-8.23
o5
o0
v0
n-0.896
n2.0
o2
n-50.9
o5
o0
v1
n-1.42
n2.0
o2
o2
o2
o2
n-0.5325856
o5
v1
n2.5
v0
o0
o2
n-4.38
v0
n3.1098
o44
o0
o2
n-2.19
o5
o0
v0
n-0.71
n2.0
o2
n-5.2
o5
o0
v1
n-1.051
n2.0
o2
o2
o2
o2
n-0.01866874
o5
v1
n4.0
o5
v0
n3.0
o0
o2
n-17.76
v0
n9.696960000000002
o44
o0
o2
n-8.88
o5
o0
v0
n-0.546
n2.0
o2
n-5.63
o5
o0
v1
n-0.904
n2.0
o2
o2
o2
o2
o2
n192.7225684
v1
o5
v0
n2.0
o0
v0
n-0.896
o0
o2
n-16.46
v0
n14.74816
o44
o0
o2
n-8.23
o5
o0
v0
n-0.896
n2.0
o2
n-50.9
o5
o0
v1
n-1.42
n2.0
o2
o2
o2
o2
o2
n1.1663624639999999
o5
v1
n2.5
o5
v0
n2.0
o0
v0
n-0.71
o0
o2
n-4.38
v0
n3.1098
o44
o0
o2
n-2.19
o5
o0
v0
n-0.71
n2.0
o2
n-5.2
o5
o0
v1
n-1.051
n2.0
o2
o2
o2
o2
o2
n0.0828892056
o5
v1
n4.0
o5
v0
n4.0
o0
v0
n-0.546
o0
o2
n-17.76
v0
n9.696960000000002
o44
o0
o2
n-8.88
o5
o0
v0
n-0.546
n2.0
o2
n-5.63
o5
o0
v1
n-0.904
n2.0
o2
o2
o2
o2
o2
n-0.11213989899999999
v0
o5
v1
n5.4
o0
v0
n-1.7
o0
o2
n-7.3
v0
n12.41
o44
o0
o2
n-1.02
o5
o0
v1
n-1.7
n2.0
o2
n-3.65
o5
o0
v0
n-1.7
n2.0
o2
o2
o2
o2
o2
n-0.224043726
v0
o5
v1
n1.5
o0
v0
n-1.13
o0
o2
n-1.66
v0
n1.8757999999999997
o44
o0
o2
n-0.83
o5
o0
v0
n-1.13
n2.0
o2
n-1.72
o5
o0
v1
n-0.414
n2.0
o2
o2
o2
o2
o2
n-3.6640338239999997
v0
o5
v1
n3.5
o0
v0
n-0.747
o0
o2
n-4.02
v0
n3.0029399999999997
o44
o0
o2
n-2.01
o5
o0
v0
n-0.747
n2.0
o2
n-1.56
o5
o0
v1
n-0.926
n2.0
o2
o2
o2
o2
o2
n-0.861189704
v0
o5
v1
n2.5
o0
v0
n-1.2
o0
o2
n-4.88
v0
n5.856
o44
o0
o2
n-2.31
o5
o0
v1
n-1.226
n2.0
o2
n-2.44
o5
o0
v0
n-1.2
n2.0
O8 0
o54
25
o2
n0.06543703
o5
v0
n4.0
o2
o2
n0.6882759400000001
v0
o5
v1
n-0.6599999999999999
o2
o2
n0.178459776
o5
v0
n2.0
o5
v1
n-0.64
o2
o2
n-11.70854
o5
v0
n2.0
o44
o0
o2
n-8.23
o5
o0
v0
n-0.896
n2.0
o2
n-50.9
o5
o0
v1
n-1.42
n2.0
o2
o2
n-0.7416738
o5
v0
n2.0
o5
v1
n-0.09999999999999998
o2
o2
n-2.0065661
v0
o5
v1
n-0.22999999999999998
o2
o2
o2
n0.26977689000000005
o5
v0
n6.0
o5
v1
n-0.09999999999999998
o44
o2
n-1.0
v0
o2
o2
o2
n0.20244915000000002
v0
o5
v1
n0.5
o44
o0
o2
n-0.83
o5
o0
v0
n-1.13
n2.0
o2
n-1.72
o5
o0
v1
n-0.414
n2.0
o2
o2
o2
n0.44118325
v0
o5
v1
n1.5
o44
o0
o2
n-2.31
o5
o0
v1
n-1.226
n2.0
o2
n-2.44
o5
o0
v0
n-1.2
n2.0
o2
o2
o2
n1.3118836500000002
o5
v0
n3.0
o5
v1
n1.1
o44
o2
n-1.0
v0
o2
o2
o2
n0.082952802
v0
o5
v1
n4.4
o44
o0
o2
n-1.02
o5
o0
v1
n-1.7
n2.0
o2
n-3.65
o5
o0
v0
n-1.7
n2.0
o2
o2
o2
n3.1900792
v0
o5
v1
n2.5
o44
o0
o2
n-2.01
o5
o0
v0
n-0.747
n2.0
o2
n-1.56
o5
o0
v1
n-0.926
n2.0
o2
o2
o2
n-4.6817633999999995
o5
v0
n2.0
o5
v1
n2.8
o44
o16
o5
v0
n2.0
o2
o2
o2
n-0.665732
o5
v0
n2.0
o5
v1
n1.5
o44
o0
o2
n-2.19
o5
o0
v0
n-0.71
n2.0
o2
n-5.2
o5
o0
v1
n-1.051
n2.0
o2
o2
o2
n-2.8894002
v0
o5
v1
n1.8199999999999998
o44
o2
n-1.0
v0
o2
o2
o2
n-0.39992620999999995
o5
v0
n6.0
o5
v1
n0.1299999999999999
o44
o2
n-1.0
v0
o2
o2
o2
n-0.01866874
o5
v0
n4.0
o5
v1
n3.0
o44
o0
o2
n-8.88
o5
o0
v0
n-0.546
n2.0
o2
n-5.63
o5
o0
v1
n-0.904
n2.0
o2
o2
o2
n-2.4267328249999998
o5
v0
n3.0
o5
v1
n1.75
o44
o16
o5
v0
n2.0
o2
o2
o2
o2
n0.1764733
v0
o5
v1
n2.5
o0
o2
n-4.62
v1
n5.66412
o44
o0
o2
n-2.31
o5
o0
v1
n-1.226
n2.0
o2
n-2.44
o5
o0
v0
n-1.2
n2.0
o2
o2
o2
o2
n0.1349661
v0
o5
v1
n1.5
o0
o2
n-3.44
v1
n1.4241599999999999
o44
o0
o2
n-0.83
o5
o0
v0
n-1.13
n2.0
o2
n-1.72
o5
o0
v1
n-0.414
n2.0
o2
o2
o2
o2
n0.9114512
v0
o5
v1
n3.5
o0
o2
n-3.12
v1
n2.88912
o44
o0
o2
n-2.01
o5
o0
v0
n-0.747
n2.0
o2
n-1.56
o5
o0
v1
n-0.926
n2.0
o2
o2
o2
o2
n0.01536163
v0
o5
v1
n5.4
o0
o2
n-2.04
v1
n3.468
o44
o0
o2
n-1.02
o5
o0
v1
n-1.7
n2.0
o2
n-3.65
o5
o0
v0
n-1.7
n2.0
o2
o2
o2
o2
n-11.70854
v1
o5
v0
n2.0
o0
o2
n-101.8
v1
n144.55599999999998
o44
o0
o2
n-8.23
o5
o0
v0
n-0.896
n2.0
o2
n-50.9
o5
o0
v1
n-1.42
n2.0
o2
o2
o2
o2
n-0.2662928
o5
v0
n2.0
o5
v1
n2.5
o0
o2
n-10.4
v1
n10.9304
o44
o0
o2
n-2.19
o5
o0
v0
n-0.71
n2.0
o2
n-5.2
o5
o0
v1
n-1.051
n2.0
o2
o2
o2
o2
n-0.004667185
o5
v0
n4.0
o5
v1
n4.0
o0
o2
n-11.26
v1
n10.17904
o44
o0
o2
n-8.88
o5
o0
v0
n-0.546
n2.0
o2
n-5.63
o5
o0
v1
n-0.904
n2.0
O9 0
o54
44
o2
o2
n0.461510203
v0
o5
v1
n-1.23
o2
o2
n0.07416737999999999
o5
v0
n2.0
o5
v1
n-1.1
o2
o2
n-0.4542621204
v0
o5
v1
n-1.66
o2
o2
n-0.11421425664
o5
v0
n2.0
o5
v1
n-1.6400000000000001
o2
o2
o2
n1.4430720150000003
o5
v0
n3.0
o5
v1
n0.10000000000000009
o44
o2
n-1.0
v0
o2
o2
o2
n0.6617748750000001
v0
o5
v1
n0.5
o44
o0
o2
n-2.31
o5
o0
v1
n-1.226
n2.0
o2
n-2.44
o5
o0
v0
n-1.2
n2.0
o2
o2
o2
n0.10122457500000001
v0
o5
v1
n-0.5
o44
o0
o2
n-0.83
o5
o0
v0
n-1.13
n2.0
o2
n-1.72
o5
o0
v1
n-0.414
n2.0
o2
o2
o2
n0.052552503099999995
o5
v0
n4.0
o5
v1
n4.0
o44
o0
o2
n-8.88
o5
o0
v0
n-0.546
n2.0
o2
n-5.63
o5
o0
v1
n-0.904
n2.0
o2
o2
o2
n1191.9293719999998
v1
o5
v0
n2.0
o44
o0
o2
n-8.23
o5
o0
v0
n-0.896
n2.0
o2
n-50.9
o5
o0
v1
n-1.42
n2.0
o2
o2
o2
n1191.9293719999998
o5
v0
n2.0
o0
v1
n-1.42
o44
o0
o2
n-8.23
o5
o0
v0
n-0.896
n2.0
o2
n-50.9
o5
o0
v1
n-1.42
n2.0
o2
o2
o2
n2.76944512
o5
v0
n2.0
o5
v1
n2.5
o44
o0
o2
n-2.19
o5
o0
v0
n-0.71
n2.0
o2
n-5.2
o5
o0
v1
n-1.051
n2.0
o2
o2
o2
n0.36499232880000004
v0
o5
v1
n3.4000000000000004
o44
o0
o2
n-1.02
o5
o0
v1
n-1.7
n2.0
o2
n-3.65
o5
o0
v0
n-1.7
n2.0
o2
o2
o2
n7.975198
v0
o5
v1
n1.5
o44
o0
o2
n-2.01
o5
o0
v0
n-0.747
n2.0
o2
n-1.56
o5
o0
v1
n-0.926
n2.0
o2
o2
o2
n-0.056006219999999995
o5
v0
n4.0
o5
v1
n2.0
o44
o0
o2
n-8.88
o5
o0
v0
n-0.546
n2.0
o2
n-5.63
o5
o0
v1
n-0.904
n2.0
o2
o2
o2
n-0.0313377252
v0
o5
v1
n5.4
o44
o0
o2
n-1.02
o5
o0
v1
n-1.7
n2.0
o2
n-3.65
o5
o0
v0
n-1.7
n2.0
o2
o2
o2
n-11.70854
o5
v0
n2.0
o0
o2
n-101.8
v1
n144.55599999999998
o44
o0
o2
n-8.23
o5
o0
v0
n-0.896
n2.0
o2
n-50.9
o5
o0
v1
n-1.42
n2.0
o2
o2
o2
n-4.24678244375
o5
v0
n3.0
o5
v1
n0.75
o44
o16
o5
v0
n2.0
o2
o2
o2
n-13.108937519999998
o5
v0
n2.0
o5
v1
n1.7999999999999998
o44
o16
o5
v0
n2.0
o2
o2
o2
n-0.026977689
o5
v0
n6.0
o5
v1
n-1.1
o44
o2
n-1.0
v0
o2
o2
o2
n-0.464283384
v0
o5
v1
n1.5
o44
o0
o2
n-0.83
o5
o0
v0
n-1.13
n2.0
o2
n-1.72
o5
o0
v1
n-0.414
n2.0
o2
o2
o2
n-0.815306646
v0
o5
v1
n2.5
o44
o0
o2
n-2.31
o5
o0
v1
n-1.226
n2.0
o2
n-2.44
o5
o0
v0
n-1.2
n2.0
o2
o2
o2
n-5.258708363999999
v0
o5
v1
n0.8199999999999998
o44
o2
n-1.0
v0
o2
o2
o2
n-2.843727744
v0
o5
v1
n3.5
o44
o0
o2
n-2.01
o5
o0
v0
n-0.747
n2.0
o2
n-1.56
o5
o0
v1
n-0.926
n2.0
o2
o2
o2
n-0.05199040729999995
o5
v0
n6.0
o5
v1
n-0.8700000000000001
o44
o2
n-1.0
v0
o2
o2
o2
n-0.998598
o5
v0
n2.0
o5
v1
n0.5
o44
o0
o2
n-2.19
o5
o0
v0
n-0.71
n2.0
o2
n-5.2
o5
o0
v1
n-1.051
n2.0
o2
o2
o2
o2
n0.20244915000000002
v0
o5
v1
n0.5
o0
o2
n-3.44
v1
n1.4241599999999999
o44
o0
o2
n-0.83
o5
o0
v0
n-1.13
n2.0
o2
n-1.72
o5
o0
v1
n-0.414
n2.0
o2
o2
o2
o2
n0.21021001239999998
o5
v0
n4.0
o5
v1
n3.0
o0
v1
n-0.904
o44
o0
o2
n-8.88
o5
o0
v0
n-0.546
n2.0
o2
n-5.63
o5
o0
v1
n-0.904
n2.0
o2
o2
o2
o2
n0.44118325
v0
o5
v1
n1.5
o0
o2
n-4.62
v1
n5.66412
o44
o0
o2
n-2.31
o5
o0
v1
n-1.226
n2.0
o2
n-2.44
o5
o0
v0
n-1.2
n2.0
o2
o2
o2
o2
n0.082952802
v0
o5
v1
n4.4
o0
o2
n-2.04
v1
n3.468
o44
o0
o2
n-1.02
o5
o0
v1
n-1.7
n2.0
o2
n-3.65
o5
o0
v0
n-1.7
n2.0
o2
o2
o2
o2
n3.1900792
v0
o5
v1
n2.5
o0
o2
n-3.12
v1
n2.88912
o44
o0
o2
n-2.01
o5
o0
v0
n-0.747
n2.0
o2
n-1.56
o5
o0
v1
n-0.926
n2.0
o2
o2
o2
o2
n6.9236128
o5
v0
n2.0
o5
v1
n1.5
o0
v1
n-1.051
o44
o0
o2
n-2.19
o5
o0
v0
n-0.71
n2.0
o2
n-5.2
o5
o0
v1
n-1.051
n2.0
o2
o2
o2
o2
n-9.953047104
v0
o5
v1
n2.5
o0
v1
n-0.926
o44
o0
o2
n-2.01
o5
o0
v0
n-0.747
n2.0
o2
n-1.56
o5
o0
v1
n-0.926
n2.0
o2
o2
o2
o2
n-2.0382666150000004
v0
o5
v1
n1.5
o0
v1
n-1.226
o44
o0
o2
n-2.31
o5
o0
v1
n-1.226
n2.0
o2
n-2.44
o5
o0
v0
n-1.2
n2.0
o2
o2
o2
o2
n-0.665732
o5
v0
n2.0
o5
v1
n1.5
o0
o2
n-10.4
v1
n10.9304
o44
o0
o2
n-2.19
o5
o0
v0
n-0.71
n2.0
o2
n-5.2
o5
o0
v1
n-1.051
n2.0
o2
o2
o2
o2
n-0.01866874
o5
v0
n4.0
o5
v1
n3.0
o0
o2
n-11.26
v1
n10.17904
o44
o0
o2
n-8.88
o5
o0
v0
n-0.546
n2.0
o2
n-5.63
o5
o0
v1
n-0.904
n2.0
o2
o2
o2
o2
n-0.16922371608
v0
o5
v1
n4.4
o0
v1
n-1.7
o44
o0
o2
n-1.02
o5
o0
v1
n-1.7
n2.0
o2
n-3.65
o5
o0
v0
n-1.7
n2.0
o2
o2
o2
o2
n-0.696425076
v0
o5
v1
n0.5
o0
v1
n-0.414
o44
o0
o2
n-0.83
o5
o0
v0
n-1.13
n2.0
o2
n-1.72
o5
o0
v1
n-0.414
n2.0
o2
o2
o2
o2
o2
n0.052552503099999995
o5
v0
n4.0
o5
v1
n4.0
o0
v1
n-0.904
o0
o2
n-11.26
v1
n10.17904
o44
o0
o2
n-8.88
o5
o0
v0
n-0.546
n2.0
o2
n-5.63
o5
o0
v1
n-0.904
n2.0
o2
o2
o2
o2
o2
n1191.9293719999998
v1
o5
v0
n2.0
o0
v1
n-1.42
o0
o2
n-101.8
v1
n144.55599999999998
o44
o0
o2
n-8.23
o5
o0
v0
n-0.896
n2.0
o2
n-50.9
o5
o0
v1
n-1.42
n2.0
o2
o2
o2
o2
o2
n2.76944512
o5
v0
n2.0
o5
v1
n2.5
o0
v1
n-1.051
o0
o2
n-10.4
v1
n10.9304
o44
o0
o2
n-2.19
o5
o0
v0
n-0.71
n2.0
o2
n-5.2
o5
o0
v1
n-1.051
n2.0
o2
o2
o2
o2
o2
n-0.0313377252
v0
o5
v1
n5.4
o0
v1
n-1.7
o0
o2
n-2.04
v1
n3.468
o44
o0
o2
n-1.02
o5
o0
v1
n-1.7
n2.0
o2
n-3.65
o5
o0
v0
n-1.7
n2.0
o2
o2
o2
o2
o2
n-0.464283384
v0
o5
v1
n1.5
o0
v1
n-0.414
o0
o2
n-3.44
v1
n1.4241599999999999
o44
o0
o2
n-0.83
o5
o0
v0
n-1.13
n2.0
o2
n-1.72
o5
o0
v1
n-0.414
n2.0
o2
o2
o2
o2
o2
n-0.815306646
v0
o5
v1
n2.5
o0
v1
n-1.226
o0
o2
n-4.62
v1
n5.66412
o44
o0
o2
n-2.31
o5
o0
v1
n-1.226
n2.0
o2
n-2.44
o5
o0
v0
n-1.2
n2.0
o2
o2
o2
o2
o2
n-2.843727744
v0
o5
v1
n3.5
o0
v1
n-0.926
o0
o2
n-3.12
v1
n2.88912
o44
o0
o2
n-2.01
o5
o0
v0
n-0.747
n2.0
o2
n-1.56
o5
o0
v1
n-0.926
n2.0
O10 0
o54
45
o2
n0.26174812
o5
v0
n3.0
o2
n0.6882759400000001
o5
v1
n-0.6599999999999999
o2
n-2.0065661
o5
v1
n-0.22999999999999998
o2
o2
n0.20244915000000002
o5
v1
n0.5
o44
o0
o2
n-0.83
o5
o0
v0
n-1.13
n2.0
o2
n-1.72
o5
o0
v1
n-0.414
n2.0
o2
o2
n0.44118325
o5
v1
n1.5
o44
o0
o2
n-2.31
o5
o0
v1
n-1.226
n2.0
o2
n-2.44
o5
o0
v0
n-1.2
n2.0
o2
o2
n0.082952802
o5
v1
n4.4
o44
o0
o2
n-1.02
o5
o0
v1
n-1.7
n2.0
o2
n-3.65
o5
o0
v0
n-1.7
n2.0
o2
o2
n0.356919552
v0
o5
v1
n-0.64
o2
o2
n3.1900792
o5
v1
n2.5
o44
o0
o2
n-2.01
o5
o0
v0
n-0.747
n2.0
o2
n-1.56
o5
o0
v1
n-0.926
n2.0
o2
o2
n-23.41708
v0
o44
o0
o2
n-8.23
o5
o0
v0
n-0.896
n2.0
o2
n-50.9
o5
o0
v1
n-1.42
n2.0
o2
o2
n-1.4833476
v0
o5
v1
n-0.09999999999999998
o2
o2
n-2.8894002
o5
v1
n1.8199999999999998
o44
o2
n-1.0
v0
o2
o2
o2
n1.61866134
o5
v1
n-0.09999999999999998
o5
v0
n5.0
o44
o2
n-1.0
v0
o2
o2
o2
n9.363526799999999
o5
v1
n2.8
o5
v0
n3.0
o44
o16
o5
v0
n2.0
o2
o2
o2
n2.8894002
v0
o5
v1
n1.8199999999999998
o44
o2
n-1.0
v0
o2
o2
o2
n0.39992620999999995
o5
v1
n0.1299999999999999
o5
v0
n6.0
o44
o2
n-1.0
v0
o2
o2
o2
n3.9356509500000003
o5
v1
n1.1
o5
v0
n2.0
o44
o2
n-1.0
v0
o2
o2
o2
n4.8534656499999995
o5
v1
n1.75
o5
v0
n4.0
o44
o16
o5
v0
n2.0
o2
o2
o2
n-0.0313377252
o5
v1
n5.4
o0
v1
n-1.7
o44
o0
o2
n-1.02
o5
o0
v1
n-1.7
n2.0
o2
n-3.65
o5
o0
v0
n-1.7
n2.0
o2
o2
o2
n-11.70854
o5
v0
n2.0
o0
o2
n-16.46
v0
n14.74816
o44
o0
o2
n-8.23
o5
o0
v0
n-0.896
n2.0
o2
n-50.9
o5
o0
v1
n-1.42
n2.0
o2
o2
o2
n-0.464283384
o5
v1
n1.5
o0
v1
n-0.414
o44
o0
o2
n-0.83
o5
o0
v0
n-1.13
n2.0
o2
n-1.72
o5
o0
v1
n-0.414
n2.0
o2
o2
o2
n-0.26977689000000005
o5
v1
n-0.09999999999999998
o5
v0
n6.0
o44
o2
n-1.0
v0
o2
o2
o2
n-9.363526799999999
v0
o5
v1
n2.8
o44
o16
o5
v0
n2.0
o2
o2
o2
n-1.331464
v0
o5
v1
n1.5
o44
o0
o2
n-2.19
o5
o0
v0
n-0.71
n2.0
o2
n-5.2
o5
o0
v1
n-1.051
n2.0
o2
o2
o2
n-0.815306646
o5
v1
n2.5
o0
v1
n-1.226
o44
o0
o2
n-2.31
o5
o0
v1
n-1.226
n2.0
o2
n-2.44
o5
o0
v0
n-1.2
n2.0
o2
o2
o2
n-0.07467496
o5
v1
n3.0
o5
v0
n3.0
o44
o0
o2
n-8.88
o5
o0
v0
n-0.546
n2.0
o2
n-5.63
o5
o0
v1
n-0.904
n2.0
o2
o2
o2
n-2.3995572599999995
o5
v1
n0.1299999999999999
o5
v0
n5.0
o44
o2
n-1.0
v0
o2
o2
o2
n-1.3118836500000002
o5
v1
n1.1
o5
v0
n3.0
o44
o2
n-1.0
v0
o2
o2
o2
n-2.843727744
o5
v1
n3.5
o0
v1
n-0.926
o44
o0
o2
n-2.01
o5
o0
v0
n-0.747
n2.0
o2
n-1.56
o5
o0
v1
n-0.926
n2.0
o2
o2
o2
n-7.280198475
o5
v1
n1.75
o5
v0
n2.0
o44
o16
o5
v0
n2.0
o2
o2
o2
o2
n0.20244915000000002
v0
o5
v1
n0.5
o0
o2
n-1.66
v0
n1.8757999999999997
o44
o0
o2
n-0.83
o5
o0
v0
n-1.13
n2.0
o2
n-1.72
o5
o0
v1
n-0.414
n2.0
o2
o2
o2
o2
n0.21021001239999998
o5
v1
n4.0
o5
v0
n3.0
o0
v1
n-0.904
o44
o0
o2
n-8.88
o5
o0
v0
n-0.546
n2.0
o2
n-5.63
o5
o0
v1
n-0.904
n2.0
o2
o2
o2
o2
n0.44118325
v0
o5
v1
n1.5
o0
o2
n-4.88
v0
n5.856
o44
o0
o2
n-2.31
o5
o0
v1
n-1.226
n2.0
o2
n-2.44
o5
o0
v0
n-1.2
n2.0
o2
o2
o2
o2
n2383.8587439999997
v1
v0
o0
v1
n-1.42
o44
o0
o2
n-8.23
o5
o0
v0
n-0.896
n2.0
o2
n-50.9
o5
o0
v1
n-1.42
n2.0
o2
o2
o2
o2
n0.082952802
v0
o5
v1
n4.4
o0
o2
n-7.3
v0
n12.41
o44
o0
o2
n-1.02
o5
o0
v1
n-1.7
n2.0
o2
n-3.65
o5
o0
v0
n-1.7
n2.0
o2
o2
o2
o2
n5.53889024
v0
o5
v1
n2.5
o0
v1
n-1.051
o44
o0
o2
n-2.19
o5
o0
v0
n-0.71
n2.0
o2
n-5.2
o5
o0
v1
n-1.051
n2.0
o2
o2
o2
o2
n3.1900792
v0
o5
v1
n2.5
o0
o2
n-4.02
v0
n3.0029399999999997
o44
o0
o2
n-2.01
o5
o0
v0
n-0.747
n2.0
o2
n-1.56
o5
o0
v1
n-0.926
n2.0
o2
o2
o2
o2
n-0.665732
o5
v1
n1.5
o5
v0
n2.0
o0
o2
n-4.38
v0
n3.1098
o44
o0
o2
n-2.19
o5
o0
v0
n-0.71
n2.0
o2
n-5.2
o5
o0
v1
n-1.051
n2.0
o2
o2
o2
o2
n-0.01866874
o5
v1
n3.0
o5
v0
n4.0
o0
o2
n-17.76
v0
n9.696960000000002
o44
o0
o2
n-8.88
o5
o0
v0
n-0.546
n2.0
o2
n-5.63
o5
o0
v1
n-0.904
n2.0
o2
o2
o2
o2
o2
n0.052552503099999995
o5
v1
n4.0
o5
v0
n4.0
o0
v1
n-0.904
o0
o2
n-17.76
v0
n9.696960000000002
o44
o0
o2
n-8.88
o5
o0
v0
n-0.546
n2.0
o2
n-5.63
o5
o0
v1
n-0.904
n2.0
o2
o2
o2
o2
o2
n1191.9293719999998
v1
o5
v0
n2.0
o0
v1
n-1.42
o0
o2
n-16.46
v0
n14.74816
o44
o0
o2
n-8.23
o5
o0
v0
n-0.896
n2.0
o2
n-50.9
o5
o0
v1
n-1.42
n2.0
o2
o2
o2
o2
o2
n2.76944512
o5
v1
n2.5
o5
v0
n2.0
o0
v1
n-1.051
o0
o2
n-4.38
v0
n3.1098
o44
o0
o2
n-2.19
o5
o0
v0
n-0.71
n2.0
o2
n-5.2
o5
o0
v1
n-1.051
n2.0
o2
o2
o2
o2
o2
n-0.0313377252
v0
o5
v1
n5.4
o0
v1
n-1.7
o0
o2
n-7.3
v0
n12.41
o44
o0
o2
n-1.02
o5
o0
v1
n-1.7
n2.0
o2
n-3.65
o5
o0
v0
n-1.7
n2.0
o2
o2
o2
o2
o2
n-0.464283384
v0
o5
v1
n1.5
o0
v1
n-0.414
o0
o2
n-1.66
v0
n1.8757999999999997
o44
o0
o2
n-0.83
o5
o0
v0
n-1.13
n2.0
o2
n-1.72
o5
o0
v1
n-0.414
n2.0
o2
o2
o2
o2
o2
n-0.815306646
v0
o5
v1
n2.5
o0
v1
n-1.226
o0
o2
n-4.88
v0
n5.856
o44
o0
o2
n-2.31
o5
o0
v1
n-1.226
n2.0
o2
n-2.44
o5
o0
v0
n-1.2
n2.0
o2
o2
o2
o2
o2
n-2.843727744
v0
o5
v1
n3.5
o0
v1
n-0.926
o0
o2
n-4.02
v0
n3.0029399999999997
o44
o0
o2
n-2.01
o5
o0
v0
n-0.747
n2.0
o2
n-1.56
o5
o0
v1
n-0.926
n2.0
O11 0
o0
o54
5
o2
n-0.29926
o5
o0
o16
o3
n1
v1
n1
n0.15
o2
n2.8025
o5
o0
o16
o3
n1
v1
n1
n0.3
o2
n-1.9602
o5
o0
o16
o3
n1
v1
n1
n0.44
o2
n2.0784
o5
o0
o16
o3
n1
v1
n1
n0.6
o2
n0.21701
o5
o0
o16
o3
n1
v1
n1
n2.75
n1.0
O12 0
o44
o54
7
o2
n-109.367
o5
o0
o16
o3
n1
v1
n1
n0.64
o2
n322.88
o5
o0
o16
o3
n1
v1
n1
n0.77
o2
n-485.87
o5
o0
o16
o3
n1
v1
n1
n0.96
o2
n417.1
o5
o0
o16
o3
n1
v1
n1
n1.2
o2
n-174.52
o5
o0
o16
o3
n1
v1
n1
n1.45
o2
n-52.695
o5
o0
o16
o3
n1
v1
n1
n5.35
o2
n-114.41
o5
o0
o16
o3
n1
v1
n1
n12.0
O13 0
n0.0
x2
0 1.00000001
1 1.0
r
b
3
3
k1
0
G0 2
0 0
1 11.0879509962
G1 1
0 0
G2 1
0 0
G3 1
1 0
G4 1
1 0
G5 2
0 0
1 0
G6 2
0 0
1 0
G7 2
0 0
1 0
G8 2
0 0
1 0
G9 2
0 0
1 0
G10 2
0 0
1 0
G11 1
1 0
G12 1
1 0
